Route 1: 0 16 79 12 7 89 82 10 1 0
Route 2: 0 91 81 72 23 51 24 2 0
Route 3: 0 76 11 43 92 38 87 100 0
Route 4: 0 31 67 3 95 61 98 77 39 0
Route 5: 0 46 96 19 88 49 85 75 97 34 56 63 0
Route 6: 0 74 59 50 80 28 52 29 0
Route 7: 0 40 86 17 66 9 94 0
Route 8: 0 20 27 6 58 65 62 32 26 0
Route 9: 0 68 21 35 99 45 8 25 0
Route 10: 0 73 5 55 4 13 44 14 84 0
Route 11: 0 90 57 15 42 36 18 70 60 30 53 41 0
Route 12: 0 69 37 83 93 71 78 54 47 0
Route 13: 0 33 48 64 22 0
